Data path: /scratch/opt/lxu/CFLG/benchmarks/Kgroup_A
Instance: K100.5.con.red
Result path: /scratch/opt/lxu/CFLG/results/Kgroup_A
Solver: Gurobi
Time limit: 7200
Formulation: LEFPAD
Cover: Large
julia --project=. src/main.jl /scratch/opt/lxu/CFLG/benchmarks/Kgroup_A K100.5.con.red /scratch/opt/lxu/CFLG/results/Kgroup_A Gurobi 7200 LEFPAD Large
The latest version of Julia in the `release` channel is 1.11.6+0.x64.linux.gnu. You currently have `1.11.4+0.x64.linux.gnu` installed. Run:

  juliaup update

in your terminal shell to install Julia 1.11.6+0.x64.linux.gnu and update the `release` channel to that version.
/scratch/opt/lxu/CFLG/benchmarks/Kgroup_A Gurobi 7200.0 /scratch/opt/lxu/CFLG/results/Kgroup_A K100.5.con.red LEFPAD Large
/scratch/opt/lxu/CFLG/benchmarks/Kgroup_A/K100.5.con.red

 read graph
data loaded


after absorb:31 31

max_piece:4
problem_graph/original graph: node: 37/31 edge: 126/120 dlt: 0.3835273439484856 break_avg_len: 0.18263206854689806 break_max_len: 1.0Vbar/V, Ebar/E(37, 37, 126, 126)
Set parameter TokenServer to value "solice01.zib.de"
Set parameter Threads to value 1
Set parameter OutputFlag to value 1
Gurobi Optimizer version 12.0.1 build v12.0.1rc0 (linux64 - "Debian GNU/Linux 12 (bookworm)")

CPU model: Intel(R) Xeon(R) Gold 5222 CPU @ 3.80GHz, instruction set [SSE2|AVX|AVX2|AVX512]
Thread count: 8 physical cores, 16 logical processors, using up to 1 threads

Non-default parameters:
Threads  1

Optimize a model with 163 rows, 378 columns and 630 nonzeros
Model fingerprint: 0x7a7678c4
Coefficient statistics:
  Matrix range     [1e+00, 1e+00]
  Objective range  [1e+00, 1e+00]
  Bounds range     [1e+00, 1e+00]
  RHS range        [1e+00, 1e+00]
Presolve removed 12 rows and 18 columns
Presolve time: 0.00s
Presolved: 151 rows, 360 columns, 600 nonzeros

Iteration    Objective       Primal Inf.    Dual Inf.      Time
       0    1.2600000e+02   1.550000e+02   0.000000e+00      0s
     110    3.7000000e+01   0.000000e+00   0.000000e+00      0s

Solved in 110 iterations and 0.00 seconds (0.00 work units)
Optimal objective  3.700000000e+01

User-callback calls 186, time in user-callback 0.00 sec
elapsed CPU time: 1.02441 seconds
Set parameter TokenServer to value "solice01.zib.de"
Set parameter Threads to value 1
Set parameter OutputFlag to value 1
Set parameter MIPGap to value 0.0001
Set parameter TimeLimit to value 7198.97559

 more cuts: false 0.3835273439484856 false
is_attach:trueformulation:LEFPAD1 125 35

 model loaded

Gurobi Optimizer version 12.0.1 build v12.0.1rc0 (linux64 - "Debian GNU/Linux 12 (bookworm)")

CPU model: Intel(R) Xeon(R) Gold 5222 CPU @ 3.80GHz, instruction set [SSE2|AVX|AVX2|AVX512]
Thread count: 8 physical cores, 16 logical processors, using up to 1 threads

Non-default parameters:
TimeLimit  7198.97559
Threads  1

Optimize a model with 13617 rows, 8817 columns and 40234 nonzeros
Model fingerprint: 0x6e66f7fb
Variable types: 4407 continuous, 4410 integer (4410 binary)
Coefficient statistics:
  Matrix range     [4e-07, 1e+00]
  Objective range  [1e+00, 1e+00]
  Bounds range     [2e-02, 1e+00]
  RHS range        [2e-02, 1e+01]
Presolve removed 4195 rows and 461 columns
Presolve time: 0.18s
Presolved: 9422 rows, 8356 columns, 35255 nonzeros
Variable types: 4129 continuous, 4227 integer (4227 binary)
Found heuristic solution: objective 125.0000000
Found heuristic solution: objective 37.0000000

Root relaxation: objective 4.161530e+00, 5740 iterations, 0.25 seconds (0.44 work units)

    Nodes    |    Current Node    |     Objective Bounds      |     Work
 Expl Unexpl |  Obj  Depth IntInf | Incumbent    BestBd   Gap | It/Node Time

     0     0    4.16153    0  155   37.00000    4.16153  88.8%     -    0s
H    0     0                      11.0000000    4.16153  62.2%     -    0s
H    0     0                      10.0000000    4.16153  58.4%     -    0s
H    0     0                       9.0000000    4.16153  53.8%     -    0s
     0     0    5.00000    0  206    9.00000    5.00000  44.4%     -    0s
     0     0    5.00000    0  206    9.00000    5.00000  44.4%     -    1s
     0     0    5.00000    0  172    9.00000    5.00000  44.4%     -    1s
H    0     0                       8.0000000    5.00000  37.5%     -    1s
     0     0    5.00000    0  198    8.00000    5.00000  37.5%     -    1s
     0     0    5.00000    0  151    8.00000    5.00000  37.5%     -    2s
     0     0    5.00000    0  142    8.00000    5.00000  37.5%     -    2s
     0     0    5.00000    0  171    8.00000    5.00000  37.5%     -    2s
     0     0    5.00000    0  245    8.00000    5.00000  37.5%     -    2s
     0     0    5.00000    0  176    8.00000    5.00000  37.5%     -    3s
     0     0    5.00000    0  214    8.00000    5.00000  37.5%     -    4s
     0     0    5.00000    0  125    8.00000    5.00000  37.5%     -    4s
     0     0    5.00000    0  261    8.00000    5.00000  37.5%     -    4s
     0     0    5.00000    0   99    8.00000    5.00000  37.5%     -    5s
     0     0    5.00000    0  198    8.00000    5.00000  37.5%     -    5s
     0     0    5.00000    0  105    8.00000    5.00000  37.5%     -    6s
     0     0    5.00000    0  197    8.00000    5.00000  37.5%     -    6s
     0     0    5.00000    0  176    8.00000    5.00000  37.5%     -    6s
     0     0    5.00000    0  171    8.00000    5.00000  37.5%     -    6s
     0     2    5.00000    0   98    8.00000    5.00000  37.5%     -    7s
    67    67    5.95509   56   32    8.00000    5.00000  37.5%   557   10s
H  130   100                       7.0000000    5.00000  28.6%   415   12s
   272   185    5.53556   10  182    7.00000    5.00000  28.6%   329   15s
   524   322    5.03547   14  256    7.00000    5.00000  28.6%   281   20s
   677   407    5.78210   15  171    7.00000    5.04979  27.9%   285   25s
   687   414    5.43620   26  184    7.00000    5.04979  27.9%   281   30s
   716   433    6.00000   28  433    7.00000    5.40311  22.8%   270   35s
   729   442    5.78210   16  429    7.00000    5.42402  22.5%   265   40s
   748   454    5.54267   20  506    7.00000    5.48658  21.6%   258   46s
   757   462    5.48878   16  171    7.00000    5.48878  21.6%   481   50s
   777   475    5.78210   15  446    7.00000    5.52230  21.1%   469   55s
   793   486    5.67519   36  657    7.00000    5.56457  20.5%   460   60s
   800   491    5.95622   24  636    7.00000    5.57095  20.4%   455   65s
   806   495    5.59065   25  574    7.00000    5.57414  20.4%   452   70s
   871   489    5.82716   41  224    7.00000    5.82716  16.8%   555   75s

Cutting planes:
  Gomory: 2
  Cover: 29
  Implied bound: 36
  Clique: 13
  MIR: 42
  Mixing: 2
  Flow cover: 73
  GUB cover: 17
  Zero half: 14
  RLT: 66
  Relax-and-lift: 67
  BQP: 54

Explored 959 nodes (610000 simplex iterations) in 78.23 seconds (90.89 work units)
Thread count was 1 (of 16 available processors)

Solution count 7: 7 8 9 ... 125

Optimal solution found (tolerance 1.00e-04)
Best objective 7.000000000000e+00, best bound 7.000000000000e+00, gap 0.0000%

User-callback calls 18846, time in user-callback 0.02 sec

 sepatime0 0 0
7.0
Stat(MathOptInterface.OPTIMAL, 7.0, 7.0, 0.0, 0.0, 1.02441, 78.22646594047546, 959, Main.CFLG.LEFPAD, "", #undef)
